
#(C) 2021 by FIZ Karlsruhe - Leibniz Institute for Information Infrastructure.  All rights reserved.
data_427243-ICSD
_database_code_ICSD 427243
_audit_creation_date 2016-02-01
_chemical_name_common 'Germanium phosphide (1/1)'
_chemical_formula_structural 'Ge P'
_chemical_formula_sum 'Ge1 P1'
_chemical_name_structure_type GaTe
_exptl_crystal_density_diffrn 4.14
_diffrn_ambient_temperature 90.
_citation_title

;
GeP and (Ge1-x Snx) (P1-y Gey) (x~0.12, y~0.05): Synthesis, structure, and
properties of two-dimensional layered tetrel phosphides
;
loop_
_citation_id
_citation_journal_full
_citation_year
_citation_journal_volume
_citation_page_first
_citation_page_last
_citation_journal_id_ASTM
primary 'Journal of Solid State Chemistry' 2015 224 62 70 JSSCBI
loop_
_citation_author_citation_id
_citation_author_name
primary 'Lee, Kathleen'
primary 'Synnestvedt, Sarah'
primary 'Bellard, Maverick'
primary 'Kovnir, Kirill'
_cell_length_a 15.1948(7)
_cell_length_b 3.6337(2)
_cell_length_c 9.1941(4)
_cell_angle_alpha 90.
_cell_angle_beta 101.239(2)
_cell_angle_gamma 90.
_cell_volume 497.9
_cell_formula_units_Z 12
_space_group_name_H-M_alt 'C 1 2/m 1'
_space_group_IT_number 12
loop_
_space_group_symop_id
_space_group_symop_operation_xyz
1 '-x, y, -z'
2 '-x, -y, -z'
3 'x, -y, z'
4 'x, y, z'
5 '-x+1/2, y+1/2, -z'
6 '-x+1/2, -y+1/2, -z'
7 'x+1/2, -y+1/2, z'
8 'x+1/2, y+1/2, z'
loop_
_atom_type_symbol
_atom_type_oxidation_number
Ge0+ 0
P0+ 0
loop_
_atom_site_label
_atom_site_type_symbol
_atom_site_symmetry_multiplicity
_atom_site_Wyckoff_symbol
_atom_site_fract_x
_atom_site_fract_y
_atom_site_fract_z
_atom_site_U_iso_or_equiv
_atom_site_occupancy
Ge1 Ge0+ 4 i 0.069971(16) 0. 0.09338(3) 0.00403(6) 1
Ge2 Ge0+ 4 i 0.627144(17) 0. 0.42764(3) 0.00416(6) 1
Ge3 Ge0+ 4 i 0.747773(17) 0. 0.28610(3) 0.00414(6) 1
P1 P0+ 4 i 0.65278(4) 0. 0.68738(7) 0.00478(11) 1
P2 P0+ 4 i 0.65959(4) 0. 0.04701(7) 0.00457(11) 1
P3 P0+ 4 i 0.03478(4) 0. 0.33487(7) 0.00475(11) 1
loop_
_atom_site_aniso_label
_atom_site_aniso_type_symbol
_atom_site_aniso_U_11
_atom_site_aniso_U_22
_atom_site_aniso_U_33
_atom_site_aniso_U_12
_atom_site_aniso_U_13
_atom_site_aniso_U_23
Ge1 Ge0+ 0.00409(12) 0.00439(11) 0.00281(12) 0. -0.00129(9) 0.
Ge2 Ge0+ 0.00464(12) 0.00448(11) 0.00284(12) 0. -0.00056(9) 0.
Ge3 Ge0+ 0.00423(12) 0.00443(11) 0.00313(11) 0. -0.00085(8) 0.
P1 P0+ 0.0052(3) 0.0047(2) 0.0037(3) 0. -0.0007(2) 0.
P2 P0+ 0.0054(3) 0.0049(2) 0.0031(3) 0. -0.0001(2) 0.
P3 P0+ 0.0050(3) 0.0049(2) 0.0040(3) 0. 0.0000(2) 0.
#End of TTdata_427243-ICSD